numOfMachines = 4;
numOfRobots = 2;
numOfJobs = 5;
maxOperations = 5;
operationsCount = [3,3,4,4,5];
operation = [
[<0,0,0>,<4,11,0>,<1,10,1>,<2,7,0 >],
[<0,0,0>,<3,12,0>,<2,10,0>,<4,8,0 >],
[<0,0,0>,<2,7,0>,<3,10,0>,<1,9,1>,<3,8,0 >],
[<0,0,0>,<2,7,0>,<4,8,0>,<1,12,0>,<2,6,0 >],
[<0,0,0>,<1,9,0>,<2,7,0>,<4,8,0>,<2,10,1>,<3,8,0>]
];
